p tw 20 53
0 1
0 4
0 14
0 15
1 6
1 14
1 18
2 3
2 9
2 14
2 16
3 13
3 6
3 5
3 7
4 5
4 10
4 11
4 6
4 13
4 7
5 12
5 11
6 10
6 18
6 11
6 14
6 17
7 8
7 14
7 15
8 14
8 13
8 11
9 11
9 16
9 17
10 15
10 16
10 17
11 12
11 14
11 13
12 13
12 14
12 17
13 14
14 19
14 17
14 16
15 18
16 17
17 18
